1 -1 -2 0
1 1 3 0
1 1 -4 0
1 -1 -5 0
1 6 2 0
1 -6 3 0
1 -6 -1 0
1 6 -4 0
1 6 5 0
1 -7 -8 0
1 7 -9 0
1 -7 5 0
1 9 10 0
1 -9 2 0
1 9 -3 0
1 -9 4 0
1 -9 5 0
1 -3 11 0
1 3 -12 0
1 -3 6 0
1 3 -13 0
1 -3 -14 0
1 3 7 0
1 -5 15 0
1 5 -11 0
1 5 -9 0
1 5 6 0
1 5 3 0
1 -5 16 0
1 -2 -17 0
1 2 -9 0
1 -2 6 0
1 2 -18 0
1 2 -7 0
1 -2 4 0
1 -4 15 0
1 4 -7 0
1 -4 19 0
1 -14 10 0
1 14 -12 0
1 14 -3 0
1 -14 -20 0
1 14 21 0
1 14 -22 0
1 -14 5 0
1 12 3 0
1 -12 -20 0
1 -12 21 0
1 23 8 0
1 -23 -11 0
1 23 24 0
1 23 25 0
1 -23 3 0
1 -23 -20 0
1 -23 26 0
1 23 27 0
1 -11 10 0
1 -11 17 0
1 11 3 0
1 11 -23 0
1 11 -26 0
1 -11 5 0
1 21 -10 0
1 21 -14 0
1 10 -28 0
1 10 21 0
1 10 -14 0
1 -10 7 0
1 10 29 0
1 20 -8 0
1 20 -9 0
1 20 16 0
1 -20 -29 0
1 -8 -30 0
1 8 -15 0
1 8 11 0
1 8 -9 0
1 8 28 0
1 8 31 0
1 -8 23 0
1 -8 -29 0
1 -32 10 0
1 32 -24 0
1 -32 25 0
1 -32 -21 0
1 32 -26 0
1 -32 27 0
1 -33 -10 0
1 -33 15 0
1 33 -24 0
1 33 27 0
1 -34 31 0
1 -34 21 0
1 34 -26 0
1 -34 27 0
1 -35 30 0
1 35 -24 0
1 35 -25 0
1 -35 21 0
1 -35 27 0
1 27 -33 0
1 -27 -11 0
1 -27 25 0
1 -27 -34 0
1 27 -32 0
1 27 23 0
1 25 35 0
1 -25 -34 0
1 25 27 0
1 -26 35 0
1 26 -11 0
1 -26 -36 0
1 26 -34 0
1 -26 -32 0
1 -26 -29 0
1 -24 -35 0
1 24 -36 0
1 24 -32 0
1 -24 23 0
1 -24 37 0
1 -22 -38 0
1 22 -39 0
1 -22 -14 0
1 22 -4 0
1 38 -40 0
1 -38 41 0
1 38 -39 0
1 38 22 0
1 38 -4 0
1 -42 -40 0
1 42 39 0
1 42 43 0
1 -42 44 0
1 -42 -4 0
1 -17 -45 0
1 17 46 0
1 -17 -2 0
1 17 47 0
1 -17 42 0
1 17 -43 0
1 -41 15 0
1 -41 31 0
1 -41 -16 0
1 41 -42 0
1 -39 -15 0
1 -39 17 0
1 -39 -31 0
1 -40 -47 0
1 -16 8 0
1 16 15 0
1 16 41 0
1 16 45 0
1 -16 -3 0
1 -16 20 0
1 -16 -39 0
1 -16 43 0
1 16 -44 0
1 15 -33 0
1 15 46 0
1 -15 20 0
1 -15 39 0
1 15 43 0
1 15 44 0
1 15 5 0
1 -31 -45 0
1 -31 -46 0
1 -31 18 0
1 -31 -13 0
1 -31 34 0
1 -31 -44 0
1 31 -19 0
1 30 -48 0
1 30 18 0
1 30 -13 0
1 30 20 0
1 -30 39 0
1 46 15 0
1 -46 36 0
1 -46 -28 0
1 -46 -31 0
1 46 -16 0
1 -46 29 0
1 -44 -17 0
1 44 -28 0
1 44 -16 0
1 44 42 0
1 44 37 0
1 -45 30 0
1 45 15 0
1 -45 17 0
1 45 31 0
1 -43 -30 0
1 43 15 0
1 -43 -17 0
1 -43 45 0
1 43 -31 0
1 43 16 0
1 43 42 0
1 28 48 0
1 -28 24 0
1 -28 46 0
1 28 20 0
1 28 -13 0
1 -28 19 0
1 29 -48 0
1 -29 -10 0
1 -29 46 0
1 29 28 0
1 -29 -13 0
1 29 20 0
1 29 -21 0
1 29 26 0
1 29 19 0
1 36 -18 0
1 36 -26 0
1 -36 44 0
1 -36 19 0
1 -37 -46 0
1 -37 -36 0
1 37 -26 0
1 -13 -48 0
1 13 30 0
1 13 28 0
1 -13 -3 0
1 13 31 0
1 -48 30 0
1 -48 -28 0
1 -48 5 0
1 48 29 0
1 -18 36 0
1 -18 -2 0
1 -18 -28 0
1 -19 -30 0
1 19 36 0
1 19 -18 0
1 19 31 0
1 -19 4 0
1 19 37 0
